(set-info :smt-lib-version 2.6)
(set-logic UFNIRA)
(set-info :source |
Generated by: Geoff Sutcliffe
Generated on: 2026-03-11
Generator: TPTPWorld
Application: Benchmarking automated theorem provers
Time limit: 120.0

These benchmarks are translations from the TPTP Library (Thousands of
Problems for Theorem Provers), see http://www.cs.miami.edu/~tptp/

The TPTP is maintained by Geoff Sutcliffe, and he contributed this
selection of benchmarks to SMT-LIB.  They were exported from the
v9.2.1 realease of TPTP.
|)
(set-info :category "industrial")
(set-info :status "unknown")
; SZS status Success
(declare-sort $$unsorted 0)
(declare-sort tptp.uni 0)
(declare-sort tptp.ty 0)
(declare-fun tptp.sort1 (tptp.ty tptp.uni) Bool)
(declare-fun tptp.witness1 (tptp.ty) tptp.uni)
(assert (forall ((A tptp.ty)) (tptp.sort1 A (tptp.witness1 A))))
(declare-fun tptp.int () tptp.ty)
(declare-fun tptp.real () tptp.ty)
(declare-sort tptp.bool1 0)
(declare-fun tptp.bool () tptp.ty)
(declare-fun tptp.true1 () tptp.bool1)
(declare-fun tptp.false1 () tptp.bool1)
(declare-fun tptp.match_bool1 (tptp.ty tptp.bool1 tptp.uni tptp.uni) tptp.uni)
(assert (forall ((A tptp.ty) (X tptp.bool1) (X1 tptp.uni) (X2 tptp.uni)) (tptp.sort1 A (tptp.match_bool1 A X X1 X2))))
(assert (forall ((A tptp.ty) (Z tptp.uni) (Z1 tptp.uni)) (=> (tptp.sort1 A Z) (= (tptp.match_bool1 A tptp.true1 Z Z1) Z))))
(assert (forall ((A tptp.ty) (Z tptp.uni) (Z1 tptp.uni)) (=> (tptp.sort1 A Z1) (= (tptp.match_bool1 A tptp.false1 Z Z1) Z1))))
(assert (not (= tptp.true1 tptp.false1)))
(assert (forall ((U tptp.bool1)) (or (= U tptp.true1) (= U tptp.false1))))
(declare-sort tptp.tuple02 0)
(declare-fun tptp.tuple0 () tptp.ty)
(declare-fun tptp.tuple03 () tptp.tuple02)
(assert (forall ((U tptp.tuple02)) (= U tptp.tuple03)))
(declare-fun tptp.qtmark () tptp.ty)
(assert (forall ((X Int) (Y Int) (Z Int)) (=> (<= X Y) (=> (<= 0 Z) (<= (* X Z) (* Y Z))))))
(declare-fun tptp.fib1 (Int) Int)
(assert (= (tptp.fib1 0) 0))
(assert (= (tptp.fib1 1) 1))
(assert (forall ((N Int)) (=> (<= 2 N) (= (tptp.fib1 N) (+ (tptp.fib1 (- N 1)) (tptp.fib1 (- N 2)))))))
(declare-fun tptp.abs1 (Int) Int)
(assert (forall ((X Int)) (let ((_let_1 (tptp.abs1 X))) (let ((_let_2 (<= 0 X))) (and (=> _let_2 (= _let_1 X)) (=> (not _let_2) (= _let_1 (- X))))))))
(assert (forall ((X Int) (Y Int)) (= (<= (tptp.abs1 X) Y) (and (<= (- Y) X) (<= X Y)))))
(assert (forall ((X Int)) (<= 0 (tptp.abs1 X))))
(assert (forall ((X Int) (Y Int) (Z Int)) (let ((_let_1 (to_real X))) (let ((_let_2 (/ (to_real Z) _let_1))) (let ((_let_3 (>= _let_1 0.0))) (let ((_let_4 (/ (to_real (+ (* X Y) Z)) _let_1))) (=> (< 0 X) (= (ite _let_3 (to_int _let_4) (- (to_int (- _let_4)))) (+ Y (ite _let_3 (to_int _let_2) (- (to_int (- _let_2)))))))))))))
(assert (forall ((X Int) (Y Int) (Z Int)) (let ((_let_1 (to_real X))) (let ((_let_2 (to_real Z))) (let ((_let_3 (/ _let_2 _let_1))) (let ((_let_4 (>= _let_1 0.0))) (let ((_let_5 (to_real (+ (* X Y) Z)))) (let ((_let_6 (/ _let_5 _let_1))) (=> (< 0 X) (= (to_int (- _let_5 (* (ite _let_4 (to_int _let_6) (- (to_int (- _let_6)))) _let_1))) (to_int (- _let_2 (* (ite _let_4 (to_int _let_3) (- (to_int (- _let_3)))) _let_1)))))))))))))
(declare-sort tptp.t1 0)
(declare-fun tptp.t () tptp.ty)
(declare-fun tptp.mk_t1 (Int Int Int Int) tptp.t1)
(declare-fun tptp.a111 (tptp.t1) Int)
(assert (forall ((U Int) (U1 Int) (U2 Int) (U3 Int)) (= (tptp.a111 (tptp.mk_t1 U U1 U2 U3)) U)))
(declare-fun tptp.a121 (tptp.t1) Int)
(assert (forall ((U Int) (U1 Int) (U2 Int) (U3 Int)) (= (tptp.a121 (tptp.mk_t1 U U1 U2 U3)) U1)))
(declare-fun tptp.a211 (tptp.t1) Int)
(assert (forall ((U Int) (U1 Int) (U2 Int) (U3 Int)) (= (tptp.a211 (tptp.mk_t1 U U1 U2 U3)) U2)))
(declare-fun tptp.a221 (tptp.t1) Int)
(assert (forall ((U Int) (U1 Int) (U2 Int) (U3 Int)) (= (tptp.a221 (tptp.mk_t1 U U1 U2 U3)) U3)))
(assert (forall ((U tptp.t1)) (= U (tptp.mk_t1 (tptp.a111 U) (tptp.a121 U) (tptp.a211 U) (tptp.a221 U)))))
(declare-fun tptp.mult1 (tptp.t1 tptp.t1) tptp.t1)
(assert (forall ((X tptp.t1) (Y tptp.t1)) (let ((_let_1 (tptp.a221 Y))) (let ((_let_2 (tptp.a221 X))) (let ((_let_3 (tptp.a121 Y))) (let ((_let_4 (tptp.a211 X))) (let ((_let_5 (tptp.a211 Y))) (let ((_let_6 (tptp.a111 Y))) (let ((_let_7 (tptp.a121 X))) (let ((_let_8 (tptp.a111 X))) (= (tptp.mult1 X Y) (tptp.mk_t1 (+ (* _let_8 _let_6) (* _let_7 _let_5)) (+ (* _let_8 _let_3) (* _let_7 _let_1)) (+ (* _let_4 _let_6) (* _let_2 _let_5)) (+ (* _let_4 _let_3) (* _let_2 _let_1))))))))))))))
(assert (forall ((X tptp.t1) (Y tptp.t1) (Z tptp.t1)) (= (tptp.mult1 (tptp.mult1 X Y) Z) (tptp.mult1 X (tptp.mult1 Y Z)))))
(assert (forall ((X tptp.t1)) (= (tptp.mult1 (tptp.mk_t1 1 0 0 1) X) X)))
(assert (forall ((X tptp.t1)) (= (tptp.mult1 X (tptp.mk_t1 1 0 0 1)) X)))
(assert (forall ((X tptp.t1) (Y tptp.t1)) (= (tptp.mult1 X Y) (tptp.mult1 Y X))))
(declare-fun tptp.power1 (tptp.t1 Int) tptp.t1)
(assert (forall ((X tptp.t1)) (= (tptp.power1 X 0) (tptp.mk_t1 1 0 0 1))))
(assert (forall ((X tptp.t1) (N Int)) (=> (<= 0 N) (= (tptp.power1 X (+ N 1)) (tptp.mult1 X (tptp.power1 X N))))))
(assert (forall ((X tptp.t1) (N Int)) (=> (< 0 N) (= (tptp.power1 X N) (tptp.mult1 X (tptp.power1 X (- N 1)))))))
(assert (forall ((X tptp.t1)) (= (tptp.power1 X 1) X)))
(assert (forall ((X tptp.t1) (N Int) (M Int)) (=> (<= 0 N) (=> (<= 0 M) (= (tptp.power1 X (+ N M)) (tptp.mult1 (tptp.power1 X N) (tptp.power1 X M)))))))
(assert (forall ((X tptp.t1) (N Int) (M Int)) (=> (<= 0 N) (=> (<= 0 M) (= (tptp.power1 X (* N M)) (tptp.power1 (tptp.power1 X N) M))))))
(assert (forall ((X tptp.t1) (Y tptp.t1) (N Int)) (=> (<= 0 N) (= (tptp.power1 (tptp.mult1 X Y) N) (tptp.mult1 (tptp.power1 X N) (tptp.power1 Y N))))))
(assert (not (forall ((N Int)) (=> (<= 0 N) (=> (= N 0) (= (tptp.power1 (tptp.mk_t1 1 1 1 0) N) (tptp.mk_t1 (+ 1 0) 0 0 1)))))))
(check-sat)
(exit)
